proyfinal/src/viki/013/experimentInOfficeAgust.take6.output/f76bb7ab-836a-4547-aab2-585eeae1f693.als.dat
{'cnf.clauses': '118081',
 'cnf.totvars': '69608',
 'conflict literals': '31',
 'conflicts': '15',
 'decisions': '5605',
 'memused.mb': '17.90',
 'outcome': 'UNSAT',
 'propagations': '29041',
 'restarts': '1',
 'solver.msecs': 25,
 'task.msecs': 118}
