proyfinal/src/viki/013/experimentInOfficeAgust.take6.output/f76bb7ab-836a-4547-aab2-585eeae1f693.als.out
Reading from standard input... Use '--help' for help.
============================[ Problem Statistics ]=============================
|                                                                             |
|  Number of variables:         69608                                         |
|  Number of clauses:          118081                                         |
|  Parse time:                   0.02 s                                       |
|                                                                             |
============================[ Search Statistics ]==============================
| Conflicts |          ORIGINAL         |          LEARNT          | Progress |
|           |    Vars  Clauses Literals |    Limit  Clauses Lit/Cl |          |
===============================================================================
===============================================================================
restarts              : 1
conflicts             : 15             (584 /sec)
decisions             : 5605           (0.00 % random) (218221 /sec)
propagations          : 29041          (1130660 /sec)
conflict literals     : 31             (0.00 % deleted)
Memory used           : 17.90 MB
CPU time              : 0.025685 s

UNSATISFIABLE
